%chk=DOG.chk
# hf/3-21g

Title Card Required

0 1
 O                 15.26500000  -21.27700000   37.45300000
 C                 14.60300000  -22.27200000   37.46100000
 C                 13.47100000  -22.62500000   36.64100000
 O                 14.83900000  -23.30600000   38.29200000
 C                 13.91600000  -24.39500000   38.04800000
 C                 13.06200000  -23.85400000   36.97900000
 C                 11.92600000  -24.64000000   36.45900000
 C                 12.13000000  -26.18300000   36.37800000
 C                 10.55100000  -24.43300000   37.21700000
 C                 10.54200000  -23.25700000   38.19000000
 C                  9.47000000  -24.21500000   36.12900000
 O                  9.60800000  -22.89500000   35.54400000
 C                 10.30400000  -25.79900000   37.91900000
 C                 10.83900000  -26.82300000   36.90200000
 O                 11.21200000  -25.93200000   39.04100000
 C                  8.84500000  -26.00900000   38.35700000
 C                  8.62200000  -27.42800000   38.88600000
 C                  7.78300000  -25.67500000   37.28400000
 C                  8.06800000  -24.27100000   36.65200000
 C                  6.34700000  -25.80900000   37.86000000
 C                  6.09000000  -24.77600000   38.99000000
 C                  6.11900000  -27.25500000   38.39600000
 C                  7.21200000  -27.65500000   39.41100000
 C                  6.08800000  -28.31800000   37.27700000
 C                  5.07300000  -27.96200000   36.18900000
 O                  3.76600000  -28.09800000   36.74600000
 C                  5.28900000  -26.58000000   35.64800000
 C                  5.27500000  -25.56000000   36.76700000
 H                 13.03054798  -22.00679583   35.88686101
 H                 13.31441790  -24.52667774   38.92301997
 H                 14.46897206  -25.21996607   37.64981301
 H                 11.88513199  -24.22633163   35.47304448
 H                 12.91344855  -26.43829350   37.06059329
 H                 12.21724749  -26.44017486   35.34303673
 H                 10.24225822  -23.59801428   39.15889841
 H                 11.52346091  -22.83482506   38.24833346
 H                  9.85397175  -22.51376996   37.84485330
 H                  9.62518543  -25.00755255   35.42708979
 H                  9.03515661  -22.82343077   34.77697439
 H                 11.10473521  -27.71081957   37.43684690
 H                 10.14394854  -26.87532333   36.09017136
 H                 11.16504406  -26.82649057   39.38637191
 H                  8.70080888  -25.29662907   39.14226211
 H                  9.27137360  -27.53353205   39.72984650
 H                  8.73075919  -28.07754038   38.04269179
 H                  7.85002442  -26.38887541   36.48977734
 H                  7.42118859  -24.17970055   35.80453354
 H                  8.00972180  -23.55907632   37.44866073
 H                  5.87409339  -25.29169868   39.90232626
 H                  6.96020564  -24.16746037   39.12161181
 H                  5.25856574  -24.15685380   38.72490557
 H                  5.15965709  -27.23194881   38.86931788
 H                  7.09719541  -26.99396135   40.24451533
 H                  7.11467633  -28.71161931   39.54878151
 H                  5.73801561  -29.22173972   37.73050352
 H                  7.05055047  -28.29146717   36.81042461
 H                  5.19431292  -28.62677030   35.35938345
 H                  3.11014920  -27.87415164   36.08165698
 H                  4.44601997  -26.36134254   35.02633000
 H                  6.27612999  -26.56554983   35.23536751
 H                  5.53284009  -24.62591449   36.31323492
 H                  4.32946914  -25.67503448   37.25448175

